p cnf 35 57
-1 -2 7 14 27 0 
-3 24 28 0 
-1 -4 19 20 22 28 0 
-5 -6 13 17 29 0 
-7 2 14 29 0 
-7 2 14 28 0 
-5 -8 15 16 30 -3 -24 0 
-9 -10 31 0 
-5 -4 19 20 22 30 -3 -24 0 
-5 -11 32 -21 0 
-5 -12 30 -3 -24 0 
-13 6 17 -4 19 20 22 31 0 
-10 -2 7 14 32 -21 0 
-4 19 20 22 32 -21 0 
-4 19 20 22 31 0 
-3 24 31 0 
-14 2 7 30 -3 -24 0 
-15 8 16 31 0 
-15 8 16 30 -3 -24 0 
-5 32 -21 0 
-16 8 15 30 -3 -24 0 
-4 19 20 22 30 -3 -24 0 
-5 -6 13 17 30 -3 -24 0 
-10 31 0 
-16 8 15 32 -21 0 
-17 6 13 30 -3 -24 0 
-10 -7 2 14 32 -21 0 
-10 -2 7 14 31 0 
-18 -19 4 20 22 30 -3 -24 0 
-10 -6 13 17 31 0 
-20 4 19 22 31 0 
-10 -8 15 16 30 -3 -24 0 
-7 2 14 32 -21 0 
-5 -8 15 16 32 -21 0 
-10 -6 13 17 32 -21 0 
-5 31 0 
-21 30 -3 -24 0 
-5 30 -3 -24 0 
-22 4 19 20 28 0 
-10 -6 13 17 29 0 
-23 33 0 
-5 -8 15 16 34 0 
-24 3 28 0 
-13 6 17 -22 4 19 20 28 0 
-25 -4 19 20 22 28 0 
-23 35 0 
-26 35 0 
-26 33 0 
-5 33 0 
-21 34 0 
-10 29 0 
-21 33 0 
-10 33 0 
-21 35 0 
-5 35 0 
-10 35 0 
-21 29 0 
